32      4       
10      10      10      10      
0       0       0       0       0       11      2       3       5       6       7       8       9       12      13      14      16      
6       1       1       0       1       6       4       10      15      20      29      30      
3       4       4       0       3       5       10      11      15      29      30      
6       5       3       0       2       4       11      22      25      28      
3       5       6       0       4       6       15      21      24      27      29      31      
6       1       3       1       0       5       15      19      24      27      29      
7       0       3       4       3       3       15      17      18      
3       4       2       0       6       2       10      29      
5       4       5       3       0       5       19      21      24      25      30      
9       0       3       6       4       5       19      22      24      26      28      
9       4       4       0       2       4       17      24      26      27      
10      4       3       0       3       4       20      23      24      25      
4       4       4       2       0       3       18      22      27      
10      4       0       5       4       4       24      25      27      28      
7       5       2       0       6       3       22      25      26      
3       0       8       2       6       3       22      23      25      
6       2       0       5       5       1       19      
2       0       4       2       4       1       19      
10      3       7       5       0       1       23      
7       8       5       4       0       1       22      
3       3       3       0       6       1       22      
1       0       3       4       2       1       32      
4       4       3       0       8       1       32      
1       5       3       5       0       1       32      
7       3       3       6       0       1       32      
6       5       4       6       0       1       32      
7       4       6       0       2       1       32      
6       4       3       0       3       1       32      
4       0       7       5       6       1       32      
6       4       6       4       0       1       32      
9       6       0       3       4       1       32      
0       0       0       0       0       0       
